NAME: tsp20_13
COMMENT: 20-tsp problem (Padberg/Rinaldi)
TYPE: TSP
DIMENSION: 20
EDGE_WEIGHT_TYPE : EUC_2D
NODE_COORD_SECTION
1 16 1
2 22 25
3 24 12
4 0 14
5 32 13
6 22 16
7 4 21
8 31 21
9 12 23
10 36 16
11 27 8
12 25 6
13 10 18
14 22 34
15 19 27
16 31 30
17 27 31
18 8 12
19 6 16
20 32 13
